clay0304m.py
Ipopt 3.12.8: 
==> Warning: Treating 36 binary and 0 integer variables as continous.


******************************************************************************
This program contains Ipopt, a library for large-scale nonlinear optimization.
 Ipopt is released as open source code under the Eclipse Public License (EPL).
         For more information visit http://projects.coin-or.org/Ipopt
******************************************************************************

This is Ipopt version 3.12.8, running with linear solver ma27.

Number of nonzeros in equality constraint Jacobian...:       36
Number of nonzeros in inequality constraint Jacobian.:      288
Number of nonzeros in Lagrangian Hessian.............:        8

Total number of variables............................:       56
                     variables with only lower bounds:       12
                variables with lower and upper bounds:       44
                     variables with only upper bounds:        0
Total number of equality constraints.................:       10
Total number of inequality constraints...............:       96
        inequality constraints with only lower bounds:       24
   inequality constraints with lower and upper bounds:        0
        inequality constraints with only upper bounds:       72

iter    objective    inf_pr   inf_du lg(mu)  ||d||  lg(rg) alpha_du alpha_pr  ls
   0  2.2399978e+01 5.78e+01 3.23e+01  -1.0 0.00e+00    -  0.00e+00 0.00e+00   0
   1  7.8193607e+00 5.69e+01 3.21e+01  -1.0 9.34e+01    -  1.17e-02 1.54e-02f  1
   2  4.1276066e+00 5.40e+01 3.19e+01  -1.0 8.36e+01    -  2.89e-02 4.12e-02f  1
   3  4.7284652e+00 4.98e+01 3.54e+01  -1.0 4.45e+01    -  1.83e-02 8.49e-02f  1
   4  4.0682503e+00 5.19e+01 3.56e+01  -1.0 1.37e+01    -  7.97e-02 1.35e-01f  1
   5  4.7156189e+00 5.40e+01 2.10e+01  -1.0 1.27e+01    -  3.27e-01 2.63e-01f  1
   6  4.0524505e+00 1.81e+01 2.37e+01  -1.0 1.03e+01    -  4.88e-01 8.53e-01H  1
   7  4.4795452e+00 3.67e+00 8.37e+00  -1.0 2.17e+00    -  6.99e-01 4.62e-01h  1
   8  4.9628294e+00 1.64e-02 3.69e+00  -1.0 1.54e+00    -  7.22e-01 6.29e-01h  1
   9  5.9448454e+00 4.98e-03 6.57e+00  -1.0 5.52e+00    -  3.73e-01 6.83e-01f  1
iter    objective    inf_pr   inf_du lg(mu)  ||d||  lg(rg) alpha_du alpha_pr  ls
  10  7.6396774e+00 1.26e-03 6.85e+00  -1.0 7.25e+00    -  6.05e-01 7.47e-01f  1
  11  1.0342846e+01 2.22e-16 1.31e+01  -1.0 1.68e+01    -  6.21e-01 1.00e+00f  1
  12  1.0800974e+01 2.22e-16 2.52e+00  -1.0 3.41e+01    -  6.10e-01 1.00e+00h  1
  13  1.0799976e+01 1.11e-16 2.06e-03  -1.0 1.71e+01    -  1.00e+00 1.00e+00h  1
  14  2.1599780e+00 0.00e+00 2.27e-04  -1.7 1.01e+00    -  1.00e+00 1.00e+00h  1
  15  1.6223429e-02 2.22e-16 1.66e-06  -3.8 2.12e-02    -  1.00e+00 1.00e+00f  1
  16  1.7685076e-04 2.22e-16 1.99e-08  -5.7 3.24e-02    -  1.00e+00 1.00e+00h  1
  17 -2.2129362e-05 0.00e+00 2.69e-11  -8.6 3.56e-03    -  1.00e+00 1.00e+00h  1

Number of Iterations....: 17

                                   (scaled)                 (unscaled)
Objective...............:  -7.3764541384498811e-06   -2.2129362415349644e-05
Dual infeasibility......:   2.6879756994425575e-11    8.0639270983276726e-11
Constraint violation....:   0.0000000000000000e+00    0.0000000000000000e+00
Complementarity.........:   2.6543044660207783e-09    7.9629133980623348e-09
Overall NLP error.......:   2.6543044660207783e-09    7.9629133980623348e-09


Number of objective function evaluations             = 19
Number of objective gradient evaluations             = 18
Number of equality constraint evaluations            = 19
Number of inequality constraint evaluations          = 19
Number of equality constraint Jacobian evaluations   = 18
Number of inequality constraint Jacobian evaluations = 18
Number of Lagrangian Hessian evaluations             = 17
Total CPU secs in IPOPT (w/o function evaluations)   =      0.012
Total CPU secs in NLP function evaluations           =      0.000

EXIT: Optimal Solution Found.

Time elapsed: 0.131878137589